1
0 0
1 1
254
255
0 1
1 2
253
254
0 2
1 3
252
253
0 3
1 4
251
252
0 4
1 5
250
251
0 5
1 6
249
250
0 6
1 7
248
249
0 7
1 8
247
248
0 8
1 9
246
247
0 9
1 10
245
246
0 10
1 11
244
245
0 11
1 12
243
244
0 12
1 13
242
243
0 13
1 14
241
242
0 14
1 15
240
241
0 15
1 16
239
240
0 16
1 17
238
239
0 17
1 18
237
238
0 18
1 19
236
237
0 19
1 20
235
236
0 20
1 21
234
235
0 21
1 22
233
234
0 22
1 23
232
233
0 23
1 24
231
232
0 24
1 25
230
231
0 25
1 26
229
230
0 26
1 27
228
229
0 27
1 28
227
228
0 28
1 29
226
227
0 29
1 30
225
226
0 30
1 31
224
225
0 31
1 32
223
224
0 32
1 33
222
223
0 33
1 34
221
222
0 34
1 35
220
221
0 35
1 36
219
220
0 36
1 37
218
219
0 37
1 38
217
218
0 38
1 39
216
217
0 39
1 40
215
216
0 40
1 41
214
215
0 41
1 42
213
214
0 42
1 43
212
213
0 43
1 44
211
212
0 44
1 45
210
211
0 45
1 46
209
210
0 46
1 47
208
209
0 47
1 48
207
208
0 48
1 49
206
207
0 49
1 50
205
206
0 50
1 51
204
205
0 51
1 52
203
204
0 52
1 53
202
203
0 53
1 54
201
202
0 54
1 55
200
201
0 55
1 56
199
200
0 56
1 57
198
199
0 57
1 58
197
198
0 58
1 59
196
197
0 59
1 60
195
196
0 60
1 61
194
195
0 61
1 62
193
194
0 62
1 63
192
193
0 63
1 64
191
192
0 64
1 65
190
191
0 65
1 66
189
190
0 66
1 67
188
189
0 67
1 68
187
188
0 68
1 69
186
187
0 69
1 70
185
186
0 70
1 71
184
185
0 71
1 72
183
184
0 72
1 73
182
183
0 73
1 74
181
182
0 74
1 75
180
181
0 75
1 76
179
180
0 76
1 77
178
179
0 77
1 78
177
178
0 78
1 79
176
177
0 79
1 80
175
176
0 80
1 81
174
175
0 81
1 82
173
174
0 82
1 83
172
173
0 83
1 84
171
172
0 84
1 85
170
171
0 85
1 86
169
170
0 86
1 87
168
169
0 87
1 88
167
168
0 88
1 89
166
167
0 89
1 90
165
166
0 90
1 91
164
165
0 91
1 92
163
164
0 92
1 93
162
163
0 93
1 94
161
162
0 94
1 95
160
161
0 95
1 96
159
160
0 96
1 97
158
159
0 97
1 98
157
158
0 98
1 99
156
157
0 99
1 100
155
156
0 100
1 101
154
155
0 101
1 102
153
154
0 102
1 103
152
153
0 103
1 104
151
152
0 104
1 105
150
151
0 105
1 106
149
150
0 106
1 107
148
149
0 107
1 108
147
148
0 108
1 109
146
147
0 109
1 110
145
146
0 110
1 111
144
145
0 111
1 112
143
144
0 112
1 113
142
143
0 113
1 114
141
142
0 114
1 115
140
141
0 115
1 116
139
140
0 116
1 117
138
139
0 117
1 118
137
138
0 118
1 119
136
137
0 119
1 120
135
136
0 120
1 121
134
135
0 121
1 122
133
134
0 122
1 123
132
133
0 123
1 124
131
132
0 124
1 125
130
131
0 125
1 126
129
130
0 126
1 127
128
129
0 127
1 128
127
128
0 128
1 129
126
127
0 129
1 130
125
126
0 130
1 131
124
125
0 131
1 132
123
124
0 132
1 133
122
123
0 133
1 134
121
122
0 134
1 135
120
121
0 135
1 136
119
120
0 136
1 137
118
119
0 137
1 138
117
118
0 138
1 139
116
117
0 139
1 140
115
116
0 140
1 141
114
115
0 141
1 142
113
114
0 142
1 143
112
113
0 143
1 144
111
112
0 144
1 145
110
111
0 145
1 146
109
110
0 146
1 147
108
109
0 147
1 148
107
108
0 148
1 149
106
107
0 149
1 150
105
106
0 150
1 151
104
105
0 151
1 152
103
104
0 152
1 153
102
103
0 153
1 154
101
102
0 154
1 155
100
101
0 155
1 156
99
100
0 156
1 157
98
99
0 157
1 158
97
98
0 158
1 159
96
97
0 159
1 160
95
96
0 160
1 161
94
95
0 161
1 162
93
94
0 162
1 163
92
93
0 163
1 164
91
92
0 164
1 165
90
91
0 165
1 166
89
90
0 166
1 167
88
89
0 167
1 168
87
88
0 168
1 169
86
87
0 169
1 170
85
86
0 170
1 171
84
85
0 171
1 172
83
84
0 172
1 173
82
83
0 173
1 174
81
82
0 174
1 175
80
81
0 175
1 176
79
80
0 176
1 177
78
79
0 177
1 178
77
78
0 178
1 179
76
77
0 179
1 180
75
76
0 180
1 181
74
75
0 181
1 182
73
74
0 182
1 183
72
73
0 183
1 184
71
72
0 184
1 185
70
71
0 185
1 186
69
70
0 186
1 187
68
69
0 187
1 188
67
68
0 188
1 189
66
67
0 189
1 190
65
66
0 190
1 191
64
65
0 191
1 192
63
64
0 192
1 193
62
63
0 193
1 194
61
62
0 194
1 195
60
61
0 195
1 196
59
60
0 196
1 197
58
59
0 197
1 198
57
58
0 198
1 199
56
57
0 199
1 200
55
56
0 200
1 201
54
55
0 201
1 202
53
54
0 202
1 203
52
53
0 203
1 204
51
52
0 204
1 205
50
51
0 205
1 206
49
50
0 206
1 207
48
49
0 207
1 208
47
48
0 208
1 209
46
47
0 209
1 210
45
46
0 210
1 211
44
45
0 211
1 212
43
44
0 212
1 213
42
43
0 213
1 214
41
42
0 214
1 215
40
41
0 215
1 216
39
40
0 216
1 217
38
39
0 217
1 218
37
38
0 218
1 219
36
37
0 219
1 220
35
36
0 220
1 221
34
35
0 221
1 222
33
34
0 222
1 223
32
33
0 223
1 224
31
32
0 224
1 225
30
31
0 225
1 226
29
30
0 226
1 227
28
29
0 227
1 228
27
28
0 228
1 229
26
27
0 229
1 230
25
26
0 230
1 231
24
25
0 231
1 232
23
24
0 232
1 233
22
23
0 233
1 234
21
22
0 234
1 235
20
21
0 235
1 236
19
20
0 236
1 237
18
19
0 237
1 238
17
18
0 238
1 239
16
17
0 239
1 240
15
16
0 240
1 241
14
15
0 241
1 242
13
14
0 242
1 243
12
13
0 243
1 244
11
12
0 244
1 245
10
11
0 245
1 246
9
10
0 246
1 247
8
9
0 247
1 248
7
8
0 248
1 249
6
7
0 249
1 250
5
6
0 250
1 251
4
5
0 251
1 252
3
4
0 252
1 253
2
3
0 253
1 254
1
2
0 254
1 255
0
1
